Solver command line: ['C:\\Program Files\\IBM\\ILOG\\CPLEX_Studio2211\\cplex\\bin\\x64_win64\\cplex.exe']


Welcome to IBM(R) ILOG(R) CPLEX(R) Interactive Optimizer 22.1.1.0
  with Simplex, Mixed Integer & Barrier Optimizers
5725-A06 5725-A29 5724-Y48 5724-Y49 5724-Y54 5724-Y55 5655-Y21
Copyright IBM Corp. 1988, 2022.  All Rights Reserved.

Type 'help' for a list of available commands.
Type 'help' followed by a command name for more
information on commands.

CPLEX> Logfile 'cplex.log' closed.
Logfile 'C:\Users\wangy\Documents\GitHub\re_optimization\result_site_specific\tmp5jmfj2om.cplex.log' open.
CPLEX> Problem 'C:\Users\wangy\Documents\GitHub\re_optimization\result_site_specific\tmpmejbu0jq.pyomo.lp' read.
Read time = 0.22 sec. (7.28 ticks)
CPLEX> Problem name         : C:\Users\wangy\Documents\GitHub\re_optimization\result_site_specific\tmpmejbu0jq.pyomo.lp
Objective sense      : Minimize
Variables            :   52617  [Nneg: 27764,  Free: 8786,  Binary: 7,
                                 Other: 16060]
Objective nonzeros   :      14
Linear constraints   :   73052  [Less: 39437,  Greater: 3,  Equal: 33612]
  Nonzeros           :  181229
  RHS nonzeros       :    3973

Variables            : Min LB: 0.000000         Max UB: 1.000000       
Objective nonzeros   : Min   : 1.000000         Max   : 1.000000       
Linear constraints   :
  Nonzeros           : Min   : 0.001646972      Max   : 100000.0       
  RHS nonzeros       : Min   : 0.005000000      Max   : 1000.000       
CPLEX> Version identifier: 22.1.1.0 | 2022-11-27 | 9160aff4d
Tried aggregator 3 times.
MIP Presolve eliminated 47967 rows and 28988 columns.
Aggregator did 7420 substitutions.
Reduced MIP has 17665 rows, 16209 columns, and 51270 nonzeros.
Reduced MIP has 5 binaries, 0 generals, 0 SOSs, and 0 indicators.
Presolve time = 0.12 sec. (153.03 ticks)
Found incumbent of value 163125.167771 after 0.16 sec. (178.00 ticks)
Probing time = 0.01 sec. (0.98 ticks)
Tried aggregator 1 time.
Detecting symmetries...
Reduced MIP has 17665 rows, 16209 columns, and 51270 nonzeros.
Reduced MIP has 5 binaries, 0 generals, 0 SOSs, and 0 indicators.
Presolve time = 0.03 sec. (30.29 ticks)
Probing time = 0.00 sec. (0.88 ticks)
MIP emphasis: balance optimality and feasibility.
MIP search method: dynamic search.
Parallel mode: deterministic, using up to 16 threads.
Root relaxation solution time = 0.56 sec. (529.63 ticks)

        Nodes                                         Cuts/
   Node  Left     Objective  IInf  Best Integer    Best Bound    ItCnt     Gap

*     0+    0                       163125.1678    -5129.0575           103.14%
*     0+    0                         4842.3443    -5129.0575           205.92%
      0     0     4838.0883     1     4842.3443     4838.0883       58    0.09%
*     0+    0                         4842.2976     4838.0883             0.09%
      0     0        cutoff           4842.2976                    103    0.00%
Elapsed time = 0.94 sec. (850.74 ticks, tree = 0.01 MB, solutions = 3)

Root node processing (before b&c):
  Real time             =    0.94 sec. (853.24 ticks)
Parallel b&c, 16 threads:
  Real time             =    0.00 sec. (0.00 ticks)
  Sync time (average)   =    0.00 sec.
  Wait time (average)   =    0.00 sec.
                          ------------
Total (root+branch&cut) =    0.94 sec. (853.24 ticks)

Solution pool: 3 solutions saved.

MIP - Integer optimal solution:  Objective =  4.8422975798e+03
Solution time =    0.94 sec.  Iterations = 103  Nodes = 0
Deterministic time = 853.39 ticks  (910.77 ticks/sec)

CPLEX> Incumbent solution written to file 'C:\Users\wangy\Documents\GitHub\re_optimization\result_site_specific\tmpgjr0td61.cplex.sol'.
CPLEX> 
